<number of tasks>
20

<cycle time>
1000

<order strength>
0,532


<task times>
1 329
2 235
3 57
4 58
5 143
6 196
7 473
8 446
9 222
10 73
11 514
12 88
13 78
14 279
15 495
16 328
17 157
18 45
19 337
20 265

<precedence relations>
1,9
2,9
3,6
4,5
4,7
4,8
5,9
6,9
7,9
8,10
9,11
9,12
9,13
9,14
11,16
11,18
12,15
13,17
15,19
16,20

<end>
